graphs/queen10_10.col
p edge 100 1470
e 1 2
e 1 3
e 1 4
e 1 5
e 1 6
e 1 7
e 1 8
e 1 9
e 1 10
e 1 11
e 1 12
e 1 21
e 1 23
e 1 31
e 1 34
e 1 41
e 1 45
e 1 51
e 1 56
e 1 61
e 1 67
e 1 71
e 1 78
e 1 81
e 1 89
e 1 91
e 1 100
e 2 3
e 2 4
e 2 5
e 2 6
e 2 7
e 2 8
e 2 9
e 2 10
e 2 11
e 2 12
e 2 13
e 2 22
e 2 24
e 2 32
e 2 35
e 2 42
e 2 46
e 2 52
e 2 57
e 2 62
e 2 68
e 2 72
e 2 79
e 2 82
e 2 90
e 2 92
e 3 4
e 3 5
e 3 6
e 3 7
e 3 8
e 3 9
e 3 10
e 3 12
e 3 13
e 3 14
e 3 21
e 3 23
e 3 25
e 3 33
e 3 36
e 3 43
e 3 47
e 3 53
e 3 58
e 3 63
e 3 69
e 3 73
e 3 80
e 3 83
e 3 93
e 4 5
e 4 6
e 4 7
e 4 8
e 4 9
e 4 10
e 4 13
e 4 14
e 4 15
e 4 22
e 4 24
e 4 26
e 4 31
e 4 34
e 4 37
e 4 44
e 4 48
e 4 54
e 4 59
e 4 64
e 4 70
e 4 74
e 4 84
e 4 94
e 5 6
e 5 7
e 5 8
e 5 9
e 5 10
e 5 14
e 5 15
e 5 16
e 5 23
e 5 25
e 5 27
e 5 32
e 5 35
e 5 38
e 5 41
e 5 45
e 5 49
e 5 55
e 5 60
e 5 65
e 5 75
e 5 85
e 5 95
e 6 7
e 6 8
e 6 9
e 6 10
e 6 15
e 6 16
e 6 17
e 6 24
e 6 26
e 6 28
e 6 33
e 6 36
e 6 39
e 6 42
e 6 46
e 6 50
e 6 51
e 6 56
e 6 66
e 6 76
e 6 86
e 6 96
e 7 8
e 7 9
e 7 10
e 7 16
e 7 17
e 7 18
e 7 25
e 7 27
e 7 29
e 7 34
e 7 37
e 7 40
e 7 43
e 7 47
e 7 52
e 7 57
e 7 61
e 7 67
e 7 77
e 7 87
e 7 97
e 8 9
e 8 10
e 8 17
e 8 18
e 8 19
e 8 26
e 8 28
e 8 30
e 8 35
e 8 38
e 8 44
e 8 48
e 8 53
e 8 58
e 8 62
e 8 68
e 8 71
e 8 78
e 8 88
e 8 98
e 9 10
e 9 18
e 9 19
e 9 20
e 9 27
e 9 29
e 9 36
e 9 39
e 9 45
e 9 49
e 9 54
e 9 59
e 9 63
e 9 69
e 9 72
e 9 79
e 9 81
e 9 89
e 9 99
e 10 19
e 10 20
e 10 28
e 10 30
e 10 37
e 10 40
e 10 46
e 10 50
e 10 55
e 10 60
e 10 64
e 10 70
e 10 73
e 10 80
e 10 82
e 10 90
e 10 91
e 10 100
e 11 12
e 11 13
e 11 14
e 11 15
e 11 16
e 11 17
e 11 18
e 11 19
e 11 20
e 11 21
e 11 22
e 11 31
e 11 33
e 11 41
e 11 44
e 11 51
e 11 55
e 11 61
e 11 66
e 11 71
e 11 77
e 11 81
e 11 88
e 11 91
e 11 99
e 12 13
e 12 14
e 12 15
e 12 16
e 12 17
e 12 18
e 12 19
e 12 20
e 12 21
e 12 22
e 12 23
e 12 32
e 12 34
e 12 42
e 12 45
e 12 52
e 12 56
e 12 62
e 12 67
e 12 72
e 12 78
e 12 82
e 12 89
e 12 92
e 12 100
e 13 14
e 13 15
e 13 16
e 13 17
e 13 18
e 13 19
e 13 20
e 13 22
e 13 23
e 13 24
e 13 31
e 13 33
e 13 35
e 13 43
e 13 46
e 13 53
e 13 57
e 13 63
e 13 68
e 13 73
e 13 79
e 13 83
e 13 90
e 13 93
e 14 15
e 14 16
e 14 17
e 14 18
e 14 19
e 14 20
e 14 23
e 14 24
e 14 25
e 14 32
e 14 34
e 14 36
e 14 41
e 14 44
e 14 47
e 14 54
e 14 58
e 14 64
e 14 69
e 14 74
e 14 80
e 14 84
e 14 94
e 15 16
e 15 17
e 15 18
e 15 19
e 15 20
e 15 24
e 15 25
e 15 26
e 15 33
e 15 35
e 15 37
e 15 42
e 15 45
e 15 48
e 15 51
e 15 55
e 15 59
e 15 65
e 15 70
e 15 75
e 15 85
e 15 95
e 16 17
e 16 18
e 16 19
e 16 20
e 16 25
e 16 26
e 16 27
e 16 34
e 16 36
e 16 38
e 16 43
e 16 46
e 16 49
e 16 52
e 16 56
e 16 60
e 16 61
e 16 66
e 16 76
e 16 86
e 16 96
e 17 18
e 17 19
e 17 20
e 17 26
e 17 27
e 17 28
e 17 35
e 17 37
e 17 39
e 17 44
e 17 47
e 17 50
e 17 53
e 17 57
e 17 62
e 17 67
e 17 71
e 17 77
e 17 87
e 17 97
e 18 19
e 18 20
e 18 27
e 18 28
e 18 29
e 18 36
e 18 38
e 18 40
e 18 45
e 18 48
e 18 54
e 18 58
e 18 63
e 18 68
e 18 72
e 18 78
e 18 81
e 18 88
e 18 98
e 19 20
e 19 28
e 19 29
e 19 30
e 19 37
e 19 39
e 19 46
e 19 49
e 19 55
e 19 59
e 19 64
e 19 69
e 19 73
e 19 79
e 19 82
e 19 89
e 19 91
e 19 99
e 20 29
e 20 30
e 20 38
e 20 40
e 20 47
e 20 50
e 20 56
e 20 60
e 20 65
e 20 70
e 20 74
e 20 80
e 20 83
e 20 90
e 20 92
e 20 100
e 21 22
e 21 23
e 21 24
e 21 25
e 21 26
e 21 27
e 21 28
e 21 29
e 21 30
e 21 31
e 21 32
e 21 41
e 21 43
e 21 51
e 21 54
e 21 61
e 21 65
e 21 71
e 21 76
e 21 81
e 21 87
e 21 91
e 21 98
e 22 23
e 22 24
e 22 25
e 22 26
e 22 27
e 22 28
e 22 29
e 22 30
e 22 31
e 22 32
e 22 33
e 22 42
e 22 44
e 22 52
e 22 55
e 22 62
e 22 66
e 22 72
e 22 77
e 22 82
e 22 88
e 22 92
e 22 99
e 23 24
e 23 25
e 23 26
e 23 27
e 23 28
e 23 29
e 23 30
e 23 32
e 23 33
e 23 34
e 23 41
e 23 43
e 23 45
e 23 53
e 23 56
e 23 63
e 23 67
e 23 73
e 23 78
e 23 83
e 23 89
e 23 93
e 23 100
e 24 25
e 24 26
e 24 27
e 24 28
e 24 29
e 24 30
e 24 33
e 24 34
e 24 35
e 24 42
e 24 44
e 24 46
e 24 51
e 24 54
e 24 57
e 24 64
e 24 68
e 24 74
e 24 79
e 24 84
e 24 90
e 24 94
e 25 26
e 25 27
e 25 28
e 25 29
e 25 30
e 25 34
e 25 35
e 25 36
e 25 43
e 25 45
e 25 47
e 25 52
e 25 55
e 25 58
e 25 61
e 25 65
e 25 69
e 25 75
e 25 80
e 25 85
e 25 95
e 26 27
e 26 28
e 26 29
e 26 30
e 26 35
e 26 36
e 26 37
e 26 44
e 26 46
e 26 48
e 26 53
e 26 56
e 26 59
e 26 62
e 26 66
e 26 70
e 26 71
e 26 76
e 26 86
e 26 96
e 27 28
e 27 29
e 27 30
e 27 36
e 27 37
e 27 38
e 27 45
e 27 47
e 27 49
e 27 54
e 27 57
e 27 60
e 27 63
e 27 67
e 27 72
e 27 77
e 27 81
e 27 87
e 27 97
e 28 29
e 28 30
e 28 37
e 28 38
e 28 39
e 28 46
e 28 48
e 28 50
e 28 55
e 28 58
e 28 64
e 28 68
e 28 73
e 28 78
e 28 82
e 28 88
e 28 91
e 28 98
e 29 30
e 29 38
e 29 39
e 29 40
e 29 47
e 29 49
e 29 56
e 29 59
e 29 65
e 29 69
e 29 74
e 29 79
e 29 83
e 29 89
e 29 92
e 29 99
e 30 39
e 30 40
e 30 48
e 30 50
e 30 57
e 30 60
e 30 66
e 30 70
e 30 75
e 30 80
e 30 84
e 30 90
e 30 93
e 30 100
e 31 32
e 31 33
e 31 34
e 31 35
e 31 36
e 31 37
e 31 38
e 31 39
e 31 40
e 31 41
e 31 42
e 31 51
e 31 53
e 31 61
e 31 64
e 31 71
e 31 75
e 31 81
e 31 86
e 31 91
e 31 97
e 32 33
e 32 34
e 32 35
e 32 36
e 32 37
e 32 38
e 32 39
e 32 40
e 32 41
e 32 42
e 32 43
e 32 52
e 32 54
e 32 62
e 32 65
e 32 72
e 32 76
e 32 82
e 32 87
e 32 92
e 32 98
e 33 34
e 33 35
e 33 36
e 33 37
e 33 38
e 33 39
e 33 40
e 33 42
e 33 43
e 33 44
e 33 51
e 33 53
e 33 55
e 33 63
e 33 66
e 33 73
e 33 77
e 33 83
e 33 88
e 33 93
e 33 99
e 34 35
e 34 36
e 34 37
e 34 38
e 34 39
e 34 40
e 34 43
e 34 44
e 34 45
e 34 52
e 34 54
e 34 56
e 34 61
e 34 64
e 34 67
e 34 74
e 34 78
e 34 84
e 34 89
e 34 94
e 34 100
e 35 36
e 35 37
e 35 38
e 35 39
e 35 40
e 35 44
e 35 45
e 35 46
e 35 53
e 35 55
e 35 57
e 35 62
e 35 65
e 35 68
e 35 71
e 35 75
e 35 79
e 35 85
e 35 90
e 35 95
e 36 37
e 36 38
e 36 39
e 36 40
e 36 45
e 36 46
e 36 47
e 36 54
e 36 56
e 36 58
e 36 63
e 36 66
e 36 69
e 36 72
e 36 76
e 36 80
e 36 81
e 36 86
e 36 96
e 37 38
e 37 39
e 37 40
e 37 46
e 37 47
e 37 48
e 37 55
e 37 57
e 37 59
e 37 64
e 37 67
e 37 70
e 37 73
e 37 77
e 37 82
e 37 87
e 37 91
e 37 97
e 38 39
e 38 40
e 38 47
e 38 48
e 38 49
e 38 56
e 38 58
e 38 60
e 38 65
e 38 68
e 38 74
e 38 78
e 38 83
e 38 88
e 38 92
e 38 98
e 39 40
e 39 48
e 39 49
e 39 50
e 39 57
e 39 59
e 39 66
e 39 69
e 39 75
e 39 79
e 39 84
e 39 89
e 39 93
e 39 99
e 40 49
e 40 50
e 40 58
e 40 60
e 40 67
e 40 70
e 40 76
e 40 80
e 40 85
e 40 90
e 40 94
e 40 100
e 41 42
e 41 43
e 41 44
e 41 45
e 41 46
e 41 47
e 41 48
e 41 49
e 41 50
e 41 51
e 41 52
e 41 61
e 41 63
e 41 71
e 41 74
e 41 81
e 41 85
e 41 91
e 41 96
e 42 43
e 42 44
e 42 45
e 42 46
e 42 47
e 42 48
e 42 49
e 42 50
e 42 51
e 42 52
e 42 53
e 42 62
e 42 64
e 42 72
e 42 75
e 42 82
e 42 86
e 42 92
e 42 97
e 43 44
e 43 45
e 43 46
e 43 47
e 43 48
e 43 49
e 43 50
e 43 52
e 43 53
e 43 54
e 43 61
e 43 63
e 43 65
e 43 73
e 43 76
e 43 83
e 43 87
e 43 93
e 43 98
e 44 45
e 44 46
e 44 47
e 44 48
e 44 49
e 44 50
e 44 53
e 44 54
e 44 55
e 44 62
e 44 64
e 44 66
e 44 71
e 44 74
e 44 77
e 44 84
e 44 88
e 44 94
e 44 99
e 45 46
e 45 47
e 45 48
e 45 49
e 45 50
e 45 54
e 45 55
e 45 56
e 45 63
e 45 65
e 45 67
e 45 72
e 45 75
e 45 78
e 45 81
e 45 85
e 45 89
e 45 95
e 45 100
e 46 47
e 46 48
e 46 49
e 46 50
e 46 55
e 46 56
e 46 57
e 46 64
e 46 66
e 46 68
e 46 73
e 46 76
e 46 79
e 46 82
e 46 86
e 46 90
e 46 91
e 46 96
e 47 48
e 47 49
e 47 50
e 47 56
e 47 57
e 47 58
e 47 65
e 47 67
e 47 69
e 47 74
e 47 77
e 47 80
e 47 83
e 47 87
e 47 92
e 47 97
e 48 49
e 48 50
e 48 57
e 48 58
e 48 59
e 48 66
e 48 68
e 48 70
e 48 75
e 48 78
e 48 84
e 48 88
e 48 93
e 48 98
e 49 50
e 49 58
e 49 59
e 49 60
e 49 67
e 49 69
e 49 76
e 49 79
e 49 85
e 49 89
e 49 94
e 49 99
e 50 59
e 50 60
e 50 68
e 50 70
e 50 77
e 50 80
e 50 86
e 50 90
e 50 95
e 50 100
e 51 52
e 51 53
e 51 54
e 51 55
e 51 56
e 51 57
e 51 58
e 51 59
e 51 60
e 51 61
e 51 62
e 51 71
e 51 73
e 51 81
e 51 84
e 51 91
e 51 95
e 52 53
e 52 54
e 52 55
e 52 56
e 52 57
e 52 58
e 52 59
e 52 60
e 52 61
e 52 62
e 52 63
e 52 72
e 52 74
e 52 82
e 52 85
e 52 92
e 52 96
e 53 54
e 53 55
e 53 56
e 53 57
e 53 58
e 53 59
e 53 60
e 53 62
e 53 63
e 53 64
e 53 71
e 53 73
e 53 75
e 53 83
e 53 86
e 53 93
e 53 97
e 54 55
e 54 56
e 54 57
e 54 58
e 54 59
e 54 60
e 54 63
e 54 64
e 54 65
e 54 72
e 54 74
e 54 76
e 54 81
e 54 84
e 54 87
e 54 94
e 54 98
e 55 56
e 55 57
e 55 58
e 55 59
e 55 60
e 55 64
e 55 65
e 55 66
e 55 73
e 55 75
e 55 77
e 55 82
e 55 85
e 55 88
e 55 91
e 55 95
e 55 99
e 56 57
e 56 58
e 56 59
e 56 60
e 56 65
e 56 66
e 56 67
e 56 74
e 56 76
e 56 78
e 56 83
e 56 86
e 56 89
e 56 92
e 56 96
e 56 100
e 57 58
e 57 59
e 57 60
e 57 66
e 57 67
e 57 68
e 57 75
e 57 77
e 57 79
e 57 84
e 57 87
e 57 90
e 57 93
e 57 97
e 58 59
e 58 60
e 58 67
e 58 68
e 58 69
e 58 76
e 58 78
e 58 80
e 58 85
e 58 88
e 58 94
e 58 98
e 59 60
e 59 68
e 59 69
e 59 70
e 59 77
e 59 79
e 59 86
e 59 89
e 59 95
e 59 99
e 60 69
e 60 70
e 60 78
e 60 80
e 60 87
e 60 90
e 60 96
e 60 100
e 61 62
e 61 63
e 61 64
e 61 65
e 61 66
e 61 67
e 61 68
e 61 69
e 61 70
e 61 71
e 61 72
e 61 81
e 61 83
e 61 91
e 61 94
e 62 63
e 62 64
e 62 65
e 62 66
e 62 67
e 62 68
e 62 69
e 62 70
e 62 71
e 62 72
e 62 73
e 62 82
e 62 84
e 62 92
e 62 95
e 63 64
e 63 65
e 63 66
e 63 67
e 63 68
e 63 69
e 63 70
e 63 72
e 63 73
e 63 74
e 63 81
e 63 83
e 63 85
e 63 93
e 63 96
e 64 65
e 64 66
e 64 67
e 64 68
e 64 69
e 64 70
e 64 73
e 64 74
e 64 75
e 64 82
e 64 84
e 64 86
e 64 91
e 64 94
e 64 97
e 65 66
e 65 67
e 65 68
e 65 69
e 65 70
e 65 74
e 65 75
e 65 76
e 65 83
e 65 85
e 65 87
e 65 92
e 65 95
e 65 98
e 66 67
e 66 68
e 66 69
e 66 70
e 66 75
e 66 76
e 66 77
e 66 84
e 66 86
e 66 88
e 66 93
e 66 96
e 66 99
e 67 68
e 67 69
e 67 70
e 67 76
e 67 77
e 67 78
e 67 85
e 67 87
e 67 89
e 67 94
e 67 97
e 67 100
e 68 69
e 68 70
e 68 77
e 68 78
e 68 79
e 68 86
e 68 88
e 68 90
e 68 95
e 68 98
e 69 70
e 69 78
e 69 79
e 69 80
e 69 87
e 69 89
e 69 96
e 69 99
e 70 79
e 70 80
e 70 88
e 70 90
e 70 97
e 70 100
e 71 72
e 71 73
e 71 74
e 71 75
e 71 76
e 71 77
e 71 78
e 71 79
e 71 80
e 71 81
e 71 82
e 71 91
e 71 93
e 72 73
e 72 74
e 72 75
e 72 76
e 72 77
e 72 78
e 72 79
e 72 80
e 72 81
e 72 82
e 72 83
e 72 92
e 72 94
e 73 74
e 73 75
e 73 76
e 73 77
e 73 78
e 73 79
e 73 80
e 73 82
e 73 83
e 73 84
e 73 91
e 73 93
e 73 95
e 74 75
e 74 76
e 74 77
e 74 78
e 74 79
e 74 80
e 74 83
e 74 84
e 74 85
e 74 92
e 74 94
e 74 96
e 75 76
e 75 77
e 75 78
e 75 79
e 75 80
e 75 84
e 75 85
e 75 86
e 75 93
e 75 95
e 75 97
e 76 77
e 76 78
e 76 79
e 76 80
e 76 85
e 76 86
e 76 87
e 76 94
e 76 96
e 76 98
e 77 78
e 77 79
e 77 80
e 77 86
e 77 87
e 77 88
e 77 95
e 77 97
e 77 99
e 78 79
e 78 80
e 78 87
e 78 88
e 78 89
e 78 96
e 78 98
e 78 100
e 79 80
e 79 88
e 79 89
e 79 90
e 79 97
e 79 99
e 80 89
e 80 90
e 80 98
e 80 100
e 81 82
e 81 83
e 81 84
e 81 85
e 81 86
e 81 87
e 81 88
e 81 89
e 81 90
e 81 91
e 81 92
e 82 83
e 82 84
e 82 85
e 82 86
e 82 87
e 82 88
e 82 89
e 82 90
e 82 91
e 82 92
e 82 93
e 83 84
e 83 85
e 83 86
e 83 87
e 83 88
e 83 89
e 83 90
e 83 92
e 83 93
e 83 94
e 84 85
e 84 86
e 84 87
e 84 88
e 84 89
e 84 90
e 84 93
e 84 94
e 84 95
e 85 86
e 85 87
e 85 88
e 85 89
e 85 90
e 85 94
e 85 95
e 85 96
e 86 87
e 86 88
e 86 89
e 86 90
e 86 95
e 86 96
e 86 97
e 87 88
e 87 89
e 87 90
e 87 96
e 87 97
e 87 98
e 88 89
e 88 90
e 88 97
e 88 98
e 88 99
e 89 90
e 89 98
e 89 99
e 89 100
e 90 99
e 90 100
e 91 92
e 91 93
e 91 94
e 91 95
e 91 96
e 91 97
e 91 98
e 91 99
e 91 100
e 92 93
e 92 94
e 92 95
e 92 96
e 92 97
e 92 98
e 92 99
e 92 100
e 93 94
e 93 95
e 93 96
e 93 97
e 93 98
e 93 99
e 93 100
e 94 95
e 94 96
e 94 97
e 94 98
e 94 99
e 94 100
e 95 96
e 95 97
e 95 98
e 95 99
e 95 100
e 96 97
e 96 98
e 96 99
e 96 100
e 97 98
e 97 99
e 97 100
e 98 99
e 98 100
e 99 100
